25 40
1 2 5
1 6 4
2 3 5
2 7 5
3 4 2
3 8 1
4 5 3
4 9 5
5 10 4
6 7 3
6 11 5
7 8 4
7 12 1
8 9 2
8 13 3
9 10 5
9 14 5
10 15 2
11 12 2
11 16 5
12 13 4
12 17 2
13 14 5
13 18 1
14 15 4
14 19 4
15 20 1
16 17 5
16 21 5
17 18 1
17 22 3
18 19 4
18 23 5
19 20 4
19 24 4
20 25 2
21 22 4
22 23 2
23 24 1
24 25 1
